55322
3, 13, 43, 40, 51, 7, 37, 35, 24, 50, 20, 5, 41, 32, 8, 38, 44, 19, 17, 23, 53, 34, 54, 47, 30, 4, 18, 12, 9, 14, 2, 25, 31, 1, 27, 33, 42, 45, 11, 52, 15, 36, 46, 39, 16, 10, 22, 29, 21, 48, 49, 26, 55, 28, 6
